GLPSOL--GLPK LP/MIP Solver 5.0
Parameter(s) specified in the command line:
 --lp ../modeles/4_309.lp --log 4_309.log
Reading problem data from '../modeles/4_309.lp'...
1253 rows, 2480 columns, 8672 non-zeros
1236 integer variables, all of which are binary
3743 lines were read
GLPK Integer Optimizer 5.0
1253 rows, 2480 columns, 8672 non-zeros
1236 integer variables, all of which are binary
Preprocessing...
1224 constraint coefficient(s) were reduced
1253 rows, 2476 columns, 8668 non-zeros
1236 integer variables, all of which are binary
Scaling...
 A: min|aij| =  4.189e-05  max|aij| =  4.000e+00  ratio =  9.548e+04
GM: min|aij| =  5.689e-02  max|aij| =  1.758e+01  ratio =  3.090e+02
EQ: min|aij| =  3.236e-03  max|aij| =  1.000e+00  ratio =  3.090e+02
2N: min|aij| =  2.681e-03  max|aij| =  1.759e+00  ratio =  6.560e+02
Constructing initial basis...
Size of triangular part is 1253
Solving LP relaxation...
GLPK Simplex Optimizer 5.0
1253 rows, 2476 columns, 8668 non-zeros
      0: obj =   8.000000000e+00 inf =   1.950e+01 (9)
     75: obj =   4.999214495e-01 inf =   0.000e+00 (0)
*   261: obj =  -1.999927392e+00 inf =   1.732e-15 (0)
OPTIMAL LP SOLUTION FOUND
Integer optimization begins...
Long-step dual simplex will be used
+   261: mip =     not found yet >=              -inf        (1; 0)
+   418: >>>>>  -1.999927392e+00 >=  -1.999927392e+00   0.0% (158; 0)
+   418: mip =  -1.999927392e+00 >=     tree is empty   0.0% (0; 315)
INTEGER OPTIMAL SOLUTION FOUND
Time used:   0.3 secs
Memory used: 3.5 Mb (3717574 bytes)
